proyfinal/src/viki/013/andrea/andrea-localstore/experimentInOfficeAgust.take6/worker_3/8c84128a-7739-4e51-bf0b-417a16ce8030.als.cnf.out
Reading from standard input... Use '--help' for help.
============================[ Problem Statistics ]=============================
|                                                                             |
|  Number of variables:         87638                                         |
|  Number of clauses:          161767                                         |
|  Parse time:                   0.04 s                                       |
|                                                                             |
============================[ Search Statistics ]==============================
| Conflicts |          ORIGINAL         |          LEARNT          | Progress |
|           |    Vars  Clauses Literals |    Limit  Clauses Lit/Cl |          |
===============================================================================
|       100 |   63879   110538   276288 |    40530      100     18 | 27.110 % |
|       250 |   63879   110538   276288 |    44583      250     19 | 27.110 % |
|       475 |   63879   110538   276288 |    49042      475     58 | 27.110 % |
|       812 |   63879   110538   276288 |    53946      812     75 | 27.110 % |
|      1318 |   63879   110538   276288 |    59340     1318     78 | 27.110 % |
|      2077 |   63879   110538   276288 |    65274     2077     98 | 27.110 % |
|      3216 |   63879   110538   276288 |    71802     3216     88 | 27.110 % |
|      4924 |   63865   110466   276120 |    78982     4912     93 | 27.127 % |
|      7486 |   52201    75148   189090 |    86880     7094     92 | 40.436 % |
|     11330 |   51967    74314   187080 |    95569    10119     82 | 40.703 % |
|     17096 |   51831    73563   185209 |   105125    13617     76 | 40.858 % |
===============================================================================
restarts              : 63
conflicts             : 18683          (6996 /sec)
decisions             : 67638          (0.00 % random) (25328 /sec)
propagations          : 28062026       (10508257 /sec)
conflict literals     : 1324964        (44.51 % deleted)
Memory used           : 39.21 MB
CPU time              : 2.67047 s

INDETERMINATE
